50 10604

76
113
175
436
500
318
209
119
312
491
254
164
241
190
337
177
476
202
224
105
117
348
185
299
184
199
337
383
348
431
208
116
310
168
135
440
318
462
81
431
180
193
448
319
16
184
12
486
315
483
